c 
c U(n,d) graph
c graph gen seed     : 39401
c number of vertices : 70
c max number of edges: 2415
c Euclidean distance : 0.400000
c data structure     : sparse
c
c           Graph Stats
c number of vertices  : 70
c nonisolated vertices: 70
c number of edges     : 798
c edge density        : 0.330435
c max degree          : 36
c avg degree          : 22.80
c min degree          : 9
p col 70 798
e 1 70
e 1 69
e 1 66
e 1 65
e 1 63
e 1 61
e 1 60
e 1 58
e 1 53
e 1 51
e 1 48
e 1 47
e 1 46
e 1 45
e 1 42
e 1 38
e 1 37
e 1 35
e 1 34
e 1 29
e 1 24
e 1 23
e 1 21
e 1 20
e 1 18
e 1 17
e 1 16
e 1 15
e 1 12
e 1 11
e 1 9
e 1 8
e 1 2
e 2 70
e 2 69
e 2 62
e 2 61
e 2 56
e 2 55
e 2 54
e 2 52
e 2 51
e 2 49
e 2 48
e 2 45
e 2 39
e 2 37
e 2 35
e 2 29
e 2 27
e 2 23
e 2 22
e 2 18
e 2 17
e 2 15
e 2 11
e 2 10
e 2 4
e 2 3
e 3 62
e 3 56
e 3 55
e 3 54
e 3 52
e 3 51
e 3 49
e 3 48
e 3 39
e 3 37
e 3 35
e 3 30
e 3 27
e 3 22
e 3 19
e 3 11
e 3 10
e 3 5
e 3 4
e 4 64
e 4 62
e 4 56
e 4 55
e 4 52
e 4 49
e 4 48
e 4 39
e 4 35
e 4 32
e 4 27
e 4 22
e 4 19
e 4 14
e 4 11
e 4 10
e 4 5
e 5 64
e 5 60
e 5 58
e 5 57
e 5 55
e 5 52
e 5 49
e 5 48
e 5 43
e 5 40
e 5 32
e 5 28
e 5 27
e 5 26
e 5 22
e 5 14
e 5 10
e 5 6
e 6 68
e 6 67
e 6 64
e 6 60
e 6 59
e 6 58
e 6 57
e 6 50
e 6 49
e 6 48
e 6 43
e 6 41
e 6 40
e 6 36
e 6 33
e 6 31
e 6 28
e 6 26
e 6 25
e 6 22
e 6 14
e 6 12
e 7 68
e 7 67
e 7 60
e 7 59
e 7 58
e 7 50
e 7 44
e 7 41
e 7 38
e 7 36
e 7 33
e 7 31
e 7 25
e 7 13
e 7 12
e 7 9
e 8 70
e 8 69
e 8 66
e 8 65
e 8 63
e 8 61
e 8 53
e 8 51
e 8 47
e 8 46
e 8 45
e 8 42
e 8 38
e 8 37
e 8 34
e 8 29
e 8 24
e 8 23
e 8 21
e 8 20
e 8 18
e 8 17
e 8 16
e 8 15
e 8 12
e 8 11
e 8 9
e 9 70
e 9 69
e 9 68
e 9 63
e 9 61
e 9 60
e 9 59
e 9 58
e 9 46
e 9 44
e 9 41
e 9 38
e 9 36
e 9 33
e 9 31
e 9 25
e 9 24
e 9 21
e 9 13
e 9 12
e 10 62
e 10 56
e 10 55
e 10 54
e 10 52
e 10 49
e 10 39
e 10 35
e 10 32
e 10 30
e 10 27
e 10 22
e 10 19
e 11 70
e 11 69
e 11 65
e 11 62
e 11 61
e 11 53
e 11 52
e 11 51
e 11 49
e 11 48
e 11 47
e 11 46
e 11 45
e 11 37
e 11 35
e 11 34
e 11 29
e 11 27
e 11 24
e 11 23
e 11 22
e 11 21
e 11 20
e 11 18
e 11 17
e 11 15
e 12 70
e 12 69
e 12 68
e 12 67
e 12 63
e 12 61
e 12 60
e 12 59
e 12 58
e 12 50
e 12 46
e 12 44
e 12 43
e 12 41
e 12 38
e 12 36
e 12 33
e 12 31
e 12 25
e 12 24
e 12 13
e 13 70
e 13 69
e 13 68
e 13 67
e 13 63
e 13 60
e 13 59
e 13 58
e 13 46
e 13 44
e 13 41
e 13 38
e 13 36
e 13 33
e 13 31
e 13 25
e 13 24
e 14 64
e 14 60
e 14 58
e 14 57
e 14 55
e 14 52
e 14 50
e 14 49
e 14 48
e 14 43
e 14 40
e 14 32
e 14 31
e 14 28
e 14 27
e 14 26
e 14 22
e 15 70
e 15 69
e 15 66
e 15 65
e 15 61
e 15 53
e 15 51
e 15 47
e 15 46
e 15 45
e 15 42
e 15 37
e 15 35
e 15 34
e 15 29
e 15 24
e 15 23
e 15 21
e 15 20
e 15 18
e 15 17
e 15 16
e 16 69
e 16 66
e 16 65
e 16 63
e 16 61
e 16 53
e 16 47
e 16 46
e 16 45
e 16 42
e 16 34
e 16 29
e 16 24
e 16 23
e 16 21
e 16 20
e 16 18
e 16 17
e 17 70
e 17 69
e 17 66
e 17 65
e 17 61
e 17 53
e 17 51
e 17 48
e 17 47
e 17 46
e 17 45
e 17 42
e 17 37
e 17 35
e 17 34
e 17 29
e 17 24
e 17 23
e 17 21
e 17 20
e 17 18
e 18 70
e 18 69
e 18 66
e 18 65
e 18 63
e 18 61
e 18 53
e 18 51
e 18 48
e 18 47
e 18 46
e 18 45
e 18 42
e 18 37
e 18 35
e 18 34
e 18 29
e 18 27
e 18 24
e 18 23
e 18 22
e 18 21
e 18 20
e 19 62
e 19 56
e 19 55
e 19 54
e 19 39
e 19 35
e 19 30
e 19 27
e 20 70
e 20 69
e 20 66
e 20 65
e 20 63
e 20 61
e 20 53
e 20 51
e 20 47
e 20 46
e 20 45
e 20 42
e 20 38
e 20 37
e 20 34
e 20 29
e 20 24
e 20 23
e 20 21
e 21 70
e 21 69
e 21 66
e 21 65
e 21 63
e 21 61
e 21 53
e 21 47
e 21 46
e 21 45
e 21 42
e 21 38
e 21 37
e 21 34
e 21 29
e 21 24
e 21 23
e 22 70
e 22 69
e 22 64
e 22 61
e 22 60
e 22 58
e 22 57
e 22 55
e 22 52
e 22 49
e 22 48
e 22 43
e 22 40
e 22 37
e 22 35
e 22 32
e 22 31
e 22 28
e 22 27
e 22 26
e 23 70
e 23 69
e 23 66
e 23 65
e 23 61
e 23 53
e 23 51
e 23 47
e 23 46
e 23 45
e 23 42
e 23 37
e 23 35
e 23 34
e 23 29
e 24 70
e 24 69
e 24 66
e 24 63
e 24 61
e 24 60
e 24 58
e 24 53
e 24 48
e 24 47
e 24 46
e 24 44
e 24 42
e 24 38
e 24 37
e 24 34
e 24 31
e 25 68
e 25 67
e 25 60
e 25 59
e 25 58
e 25 57
e 25 50
e 25 44
e 25 43
e 25 41
e 25 40
e 25 36
e 25 33
e 25 31
e 25 28
e 26 64
e 26 57
e 26 52
e 26 49
e 26 43
e 26 40
e 26 32
e 26 28
e 27 64
e 27 62
e 27 56
e 27 55
e 27 54
e 27 52
e 27 51
e 27 49
e 27 48
e 27 39
e 27 37
e 27 35
e 27 32
e 27 30
e 27 29
e 28 64
e 28 60
e 28 58
e 28 57
e 28 55
e 28 52
e 28 50
e 28 49
e 28 48
e 28 43
e 28 40
e 28 32
e 28 31
e 29 70
e 29 69
e 29 66
e 29 65
e 29 62
e 29 61
e 29 53
e 29 51
e 29 48
e 29 47
e 29 46
e 29 45
e 29 42
e 29 37
e 29 35
e 29 34
e 30 62
e 30 56
e 30 54
e 30 39
e 30 35
e 31 70
e 31 69
e 31 68
e 31 67
e 31 63
e 31 61
e 31 60
e 31 59
e 31 58
e 31 57
e 31 50
e 31 49
e 31 48
e 31 44
e 31 43
e 31 41
e 31 40
e 31 38
e 31 37
e 31 36
e 31 33
e 32 64
e 32 57
e 32 55
e 32 52
e 32 49
e 33 68
e 33 67
e 33 60
e 33 59
e 33 58
e 33 50
e 33 44
e 33 43
e 33 41
e 33 38
e 33 36
e 34 70
e 34 69
e 34 66
e 34 65
e 34 63
e 34 61
e 34 53
e 34 51
e 34 47
e 34 46
e 34 45
e 34 42
e 34 37
e 35 70
e 35 69
e 35 62
e 35 61
e 35 56
e 35 55
e 35 54
e 35 52
e 35 51
e 35 49
e 35 48
e 35 45
e 35 39
e 35 37
e 36 68
e 36 67
e 36 60
e 36 59
e 36 58
e 36 50
e 36 44
e 36 43
e 36 41
e 36 38
e 37 70
e 37 69
e 37 63
e 37 61
e 37 60
e 37 58
e 37 53
e 37 52
e 37 51
e 37 49
e 37 48
e 37 47
e 37 46
e 37 45
e 37 43
e 38 70
e 38 69
e 38 68
e 38 63
e 38 61
e 38 60
e 38 59
e 38 58
e 38 53
e 38 46
e 38 44
e 38 41
e 39 62
e 39 56
e 39 55
e 39 54
e 39 52
e 40 67
e 40 64
e 40 58
e 40 57
e 40 50
e 40 49
e 40 43
e 41 68
e 41 67
e 41 60
e 41 59
e 41 58
e 41 50
e 41 44
e 42 69
e 42 66
e 42 65
e 42 63
e 42 61
e 42 53
e 42 47
e 42 46
e 42 45
e 43 70
e 43 68
e 43 67
e 43 64
e 43 60
e 43 58
e 43 57
e 43 52
e 43 50
e 43 49
e 43 48
e 44 70
e 44 68
e 44 67
e 44 63
e 44 60
e 44 59
e 44 58
e 44 50
e 45 70
e 45 69
e 45 66
e 45 65
e 45 62
e 45 61
e 45 53
e 45 51
e 45 47
e 45 46
e 46 70
e 46 69
e 46 66
e 46 65
e 46 63
e 46 61
e 46 53
e 46 47
e 47 70
e 47 69
e 47 66
e 47 65
e 47 63
e 47 61
e 47 53
e 47 51
e 48 70
e 48 69
e 48 64
e 48 61
e 48 60
e 48 58
e 48 57
e 48 55
e 48 52
e 48 49
e 49 70
e 49 64
e 49 60
e 49 58
e 49 57
e 49 55
e 49 52
e 50 68
e 50 67
e 50 60
e 50 59
e 50 58
e 50 57
e 51 70
e 51 69
e 51 66
e 51 65
e 51 62
e 51 61
e 51 53
e 52 64
e 52 62
e 52 56
e 52 55
e 53 70
e 53 69
e 53 66
e 53 65
e 53 63
e 53 61
e 54 62
e 54 56
e 55 64
e 55 62
e 55 56
e 56 62
e 57 67
e 57 64
e 57 60
e 57 58
e 58 70
e 58 69
e 58 68
e 58 67
e 58 63
e 58 61
e 58 60
e 58 59
e 59 68
e 59 67
e 59 60
e 60 70
e 60 69
e 60 68
e 60 67
e 60 63
e 60 61
e 61 70
e 61 69
e 61 66
e 61 65
e 61 63
e 63 70
e 63 69
e 63 66
e 65 69
e 65 66
e 66 69
e 67 68
e 69 70
